
n_res = 6;
rcap = [37, 35, 38, 36, 1558, 1481];
rtype = [1, 1, 1, 1, 2, 2];
n_tasks = 100;
modes =  [{1, 2, 3}, {4, 5, 6}, {7, 8, 9}, {10, 11, 12}, {13, 14, 15}, {16, 17, 18}, {19, 20, 21}, {22, 23, 24}, {25, 26, 27}, {28, 29, 30}, {31, 32, 33}, {34, 35, 36}, {37, 38, 39}, {40, 41, 42}, {43, 44, 45}, {46, 47, 48}, {49, 50, 51}, {52, 53, 54}, {55, 56, 57}, {58, 59, 60}, {61, 62, 63}, {64, 65, 66}, {67, 68, 69}, {70, 71, 72}, {73, 74, 75}, {76, 77, 78}, {79, 80, 81}, {82, 83, 84}, {85, 86, 87}, {88, 89, 90}, {91, 92, 93}, {94, 95, 96}, {97, 98, 99}, {100, 101, 102}, {103, 104, 105}, {106, 107, 108}, {109, 110, 111}, {112, 113, 114}, {115, 116, 117}, {118, 119, 120}, {121, 122, 123}, {124, 125, 126}, {127, 128, 129}, {130, 131, 132}, {133, 134, 135}, {136, 137, 138}, {139, 140, 141}, {142, 143, 144}, {145, 146, 147}, {148, 149, 150}, {151, 152, 153}, {154, 155, 156}, {157, 158, 159}, {160, 161, 162}, {163, 164, 165}, {166, 167, 168}, {169, 170, 171}, {172, 173, 174}, {175, 176, 177}, {178, 179, 180}, {181, 182, 183}, {184, 185, 186}, {187, 188, 189}, {190, 191, 192}, {193, 194, 195}, {196, 197, 198}, {199, 200, 201}, {202, 203, 204}, {205, 206, 207}, {208, 209, 210}, {211, 212, 213}, {214, 215, 216}, {217, 218, 219}, {220, 221, 222}, {223, 224, 225}, {226, 227, 228}, {229, 230, 231}, {232, 233, 234}, {235, 236, 237}, {238, 239, 240}, {241, 242, 243}, {244, 245, 246}, {247, 248, 249}, {250, 251, 252}, {253, 254, 255}, {256, 257, 258}, {259, 260, 261}, {262, 263, 264}, {265, 266, 267}, {268, 269, 270}, {271, 272, 273}, {274, 275, 276}, {277, 278, 279}, {280, 281, 282}, {283, 284, 285}, {286, 287, 288}, {289, 290, 291}, {292, 293, 294}, {295, 296, 297}, {298, 299, 300}];
succ =  [{62, 56, 40, 34, 29, 26, 21, 19, 14}, {56, 38, 28, 23, 14, 6}, {62, 56, 40, 32, 28, 26, 25, 14}, {60, 51, 42, 41, 40, 38, 37, 33, 30, 29, 28, 27, 26}, {62, 53, 45, 44, 40, 38, 14}, {62, 53, 46, 41, 40, 36, 26, 19}, {62, 57, 51, 50, 46, 43, 41, 40, 35, 28, 26}, {62, 60, 57, 54, 46, 44, 33, 30, 23}, {65, 62, 60, 57, 56, 51, 44, 27, 23}, {62, 60, 56, 51, 41, 38, 27, 26}, {79, 62, 61, 60, 59, 58, 46, 45, 44, 42, 41, 40, 33, 29}, {61, 60, 56, 54, 53, 50, 44, 41, 38, 26}, {79, 59, 58, 56, 50, 46, 43, 40, 29, 25}, {51, 49, 47, 43, 41, 39, 35, 27}, {79, 78, 65, 62, 61, 60, 59, 53, 51, 50, 49, 47, 46, 45, 43, 40, 36}, {77, 65, 61, 57, 56, 53, 51, 50, 44, 32, 26}, {62, 56, 53, 46, 43, 38, 33, 26}, {82, 76, 65, 62, 61, 60, 53, 52, 51, 50, 49, 45, 44, 39}, {79, 61, 60, 51, 50, 49, 44, 37, 33, 32}, {79, 61, 51, 50, 48, 45, 41, 40, 37, 35}, {82, 78, 60, 58, 51, 50, 43, 38, 28}, {78, 77, 64, 58, 51, 50, 47, 41, 28}, {78, 77, 61, 53, 50, 26}, {82, 81, 70, 67, 65, 62, 61, 54, 51, 44, 39}, {82, 81, 70, 68, 65, 64, 60, 55, 54, 52, 51, 47}, {82, 79, 76, 66, 59, 58, 55, 52, 49, 47, 45}, {82, 81, 79, 78, 77, 71, 67, 64, 61, 54, 50, 48, 46}, {79, 70, 67, 65, 61, 59, 54, 53, 48}, {82, 70, 55, 53, 52, 49, 48, 47}, {82, 78, 76, 69, 65, 58, 52, 43}, {99, 81, 77, 76, 75, 67, 66, 65, 64, 62, 59, 57, 55}, {82, 78, 76, 58, 52, 48, 45}, {81, 80, 78, 77, 76, 74, 71, 70, 68, 67, 65, 48}, {100, 97, 82, 81, 78, 77, 76, 71, 70, 67, 66, 65, 64, 55}, {100, 78, 76, 75, 71, 67, 66, 64, 60, 59, 55}, {99, 82, 81, 76, 68, 67, 55, 52, 48}, {99, 77, 76, 75, 69, 68, 65, 64, 58, 57, 55}, {99, 80, 77, 76, 75, 74, 69, 66, 65, 64, 63, 57}, {99, 98, 79, 77, 66, 59, 58, 57, 55}, {100, 99, 97, 92, 82, 81, 80, 77, 76, 75, 74, 71, 67, 66, 63}, {98, 82, 76, 74, 70, 69, 68, 63, 52}, {82, 70, 67, 63, 54, 52}, {100, 99, 81, 77, 71, 67, 66, 64, 55}, {99, 74, 71, 68, 48}, {100, 97, 96, 80, 74, 72, 70, 68, 67, 63}, {98, 97, 94, 92, 80, 75, 74, 70, 66, 63}, {100, 99, 96, 95, 93, 91, 89, 88, 80, 74, 72, 69, 67}, {100, 98, 96, 90, 75, 69, 66, 63}, {96, 93, 92, 81, 80, 74, 73, 71, 64}, {98, 96, 87, 85, 75, 70, 69}, {97, 94, 92, 74, 66, 63}, {97, 96, 95, 94, 84, 80, 75, 72, 71}, {97, 96, 93, 81, 80, 75, 71, 68}, {100, 99, 98, 96, 93, 92, 91, 90, 85, 83, 76, 73}, {96, 92, 88, 80, 74, 63}, {100, 95, 94, 93, 92, 89, 88, 87, 86, 83, 81, 78}, {100, 96, 95, 94, 86, 84, 83, 72, 71}, {93, 91, 90, 89, 88, 84, 80, 74, 72}, {97, 93, 91, 90, 86, 84, 72, 68}, {99, 98, 97, 92, 89, 87, 86, 85, 84, 77}, {96, 93, 91, 87, 86, 75, 74, 73}, {98, 95, 92, 91, 90, 88, 83, 73}, {95, 93, 91, 87, 86, 83, 73}, {95, 94, 91, 90, 87, 85}, {98, 89, 87, 85, 84, 83}, {93, 88, 84, 72}, {98, 94, 90, 86, 84}, {92, 88, 87, 85, 83}, {97, 94, 92, 86, 83}, {99, 95, 90, 88, 84}, {91, 90, 88}, {87, 85}, {89, 84}, {85, 83}, {89, 83}, {94, 86}, {96, 88}, {90, 84}, {80}, {86}, {85}, {83}, {}, {}, {}, {}, {}, {}, {}, {}, {}, {}, {}, {}, {}, {}, {}, {}, {}, {}];
n_opt = 300;
dur = [17, 25, 26, 17, 18, 22, 18, 21, 25, 12, 13, 14, 3, 7, 24, 13, 17, 26, 23, 24, 25, 4, 17, 20, 11, 18, 21, 9, 10, 28, 8, 16, 27, 9, 21, 25, 3, 15, 19, 5, 18, 26, 6, 12, 25, 5, 8, 26, 10, 12, 29, 15, 28, 29, 20, 21, 26, 9, 22, 27, 3, 12, 29, 8, 14, 30, 12, 14, 28, 7, 28, 29, 12, 25, 26, 1, 6, 30, 3, 15, 25, 3, 12, 28, 5, 17, 18, 12, 26, 27, 9, 15, 26, 18, 22, 25, 12, 13, 22, 8, 12, 15, 1, 10, 11, 2, 6, 10, 16, 25, 30, 3, 4, 30, 3, 19, 21, 20, 28, 30, 9, 21, 24, 9, 11, 22, 18, 20, 24, 1, 13, 30, 12, 18, 25, 16, 24, 25, 12, 19, 20, 4, 8, 21, 3, 9, 26, 10, 24, 26, 4, 12, 22, 4, 18, 29, 15, 16, 26, 6, 10, 23, 3, 9, 27, 4, 19, 23, 16, 17, 28, 2, 7, 18, 10, 15, 17, 3, 5, 9, 6, 7, 25, 3, 4, 7, 7, 14, 19, 1, 16, 28, 5, 9, 14, 4, 7, 18, 3, 18, 29, 13, 28, 29, 4, 20, 26, 2, 18, 25, 3, 24, 28, 7, 12, 15, 12, 14, 21, 5, 6, 17, 14, 19, 26, 9, 13, 24, 11, 22, 27, 10, 25, 29, 21, 22, 29, 3, 6, 14, 13, 17, 18, 10, 11, 18, 9, 11, 25, 6, 7, 22, 2, 11, 22, 3, 25, 26, 5, 10, 17, 21, 26, 28, 3, 4, 21, 5, 14, 16, 4, 17, 21, 3, 14, 27, 7, 14, 20, 1, 19, 21, 9, 13, 28, 3, 15, 24, 13, 24, 29, 9, 11, 23, 2, 4, 24, 5, 18, 28];
rreq = [|3, 2, 2, 4, 3, 2, 2, 2, 2, 1, 1, 1, 2, 1, 1, 3, 2, 2, 4, 4, 3, 4, 3, 1, 3, 3, 3, 5, 4, 4, 4, 3, 3, 5, 4, 4, 4, 4, 4, 3, 3, 3, 2, 2, 2, 4, 4, 4, 5, 3, 3, 2, 2, 2, 2, 1, 1, 2, 2, 2, 3, 3, 3, 4, 4, 4, 4, 3, 3, 4, 4, 4, 3, 3, 2, 4, 4, 4, 4, 3, 3, 3, 2, 2, 2, 2, 1, 4, 4, 4, 5, 3, 2, 3, 3, 2, 3, 1, 1, 2, 2, 2, 3, 3, 3, 4, 3, 3, 4, 2, 2, 4, 2, 2, 5, 3, 2, 5, 4, 4, 3, 3, 1, 3, 2, 2, 3, 2, 1, 3, 3, 3, 4, 3, 2, 3, 2, 2, 1, 1, 1, 4, 2, 2, 5, 4, 3, 1, 1, 1, 5, 4, 4, 4, 4, 3, 3, 3, 3, 4, 4, 4, 1, 1, 1, 2, 1, 1, 4, 3, 3, 2, 1, 1, 2, 1, 1, 5, 3, 3, 1, 1, 1, 4, 3, 3, 4, 3, 1, 1, 1, 1, 2, 2, 2, 2, 2, 2, 4, 3, 2, 3, 2, 2, 3, 2, 1, 5, 4, 4, 3, 2, 2, 4, 4, 4, 1, 1, 1, 3, 3, 2, 3, 2, 1, 5, 4, 2, 5, 4, 4, 5, 4, 3, 4, 3, 2, 3, 1, 1, 4, 4, 4, 5, 4, 3, 4, 4, 2, 3, 3, 3, 4, 4, 2, 5, 3, 3, 5, 5, 5, 3, 2, 2, 5, 4, 3, 5, 4, 4, 2, 1, 1, 3, 1, 1, 4, 2, 2, 5, 5, 5, 4, 3, 2, 5, 5, 5, 4, 4, 4, 2, 1, 1, 2, 1, 1, 3, 2, 2
 |4, 3, 2, 4, 4, 4, 4, 4, 4, 2, 1, 1, 1, 1, 1, 1, 1, 1, 5, 4, 4, 1, 1, 1, 3, 3, 1, 4, 3, 3, 4, 3, 3, 4, 3, 1, 3, 3, 3, 4, 3, 2, 5, 4, 4, 4, 3, 1, 4, 3, 3, 4, 4, 4, 5, 3, 2, 1, 1, 1, 2, 2, 2, 2, 1, 1, 4, 2, 2, 3, 2, 2, 3, 3, 3, 4, 4, 3, 3, 2, 2, 3, 2, 2, 2, 2, 1, 4, 4, 2, 4, 3, 3, 4, 4, 3, 5, 5, 5, 3, 1, 1, 4, 3, 2, 4, 4, 4, 3, 3, 2, 1, 1, 1, 3, 2, 1, 3, 3, 1, 2, 1, 1, 1, 1, 1, 3, 3, 3, 3, 1, 1, 2, 2, 2, 2, 1, 1, 4, 3, 3, 5, 3, 3, 5, 3, 3, 1, 1, 1, 3, 3, 1, 5, 4, 2, 3, 1, 1, 2, 1, 1, 4, 4, 4, 3, 3, 2, 4, 4, 4, 4, 3, 3, 5, 3, 3, 3, 2, 2, 2, 1, 1, 5, 4, 3, 3, 3, 3, 2, 1, 1, 4, 3, 2, 3, 3, 3, 4, 2, 2, 5, 3, 3, 2, 2, 2, 2, 2, 2, 4, 3, 3, 3, 3, 3, 5, 4, 4, 4, 4, 3, 5, 2, 1, 4, 3, 3, 5, 4, 4, 5, 3, 2, 2, 1, 1, 3, 1, 1, 5, 3, 3, 2, 2, 1, 1, 1, 1, 4, 3, 3, 2, 2, 2, 4, 3, 3, 2, 2, 2, 1, 1, 1, 4, 4, 4, 1, 1, 1, 5, 3, 2, 4, 2, 2, 4, 2, 2, 3, 3, 3, 2, 1, 1, 4, 3, 2, 3, 3, 1, 3, 3, 2, 3, 3, 3, 4, 4, 4
 |4, 4, 3, 4, 3, 3, 4, 3, 3, 5, 4, 3, 4, 2, 2, 4, 4, 4, 4, 4, 3, 2, 2, 2, 4, 4, 2, 5, 3, 3, 2, 1, 1, 4, 4, 4, 5, 5, 5, 4, 4, 4, 4, 4, 4, 2, 2, 2, 2, 1, 1, 4, 4, 4, 5, 5, 5, 4, 3, 3, 3, 3, 2, 2, 2, 2, 4, 3, 3, 3, 3, 1, 4, 4, 4, 3, 2, 1, 5, 3, 3, 3, 2, 1, 3, 2, 1, 2, 2, 2, 4, 2, 2, 3, 3, 3, 4, 2, 1, 3, 2, 1, 4, 4, 3, 4, 3, 3, 2, 1, 1, 5, 4, 2, 2, 1, 1, 4, 4, 4, 5, 5, 5, 5, 5, 5, 5, 3, 3, 3, 3, 3, 3, 3, 3, 4, 3, 3, 5, 5, 5, 3, 3, 3, 4, 3, 1, 4, 4, 4, 4, 3, 2, 2, 2, 1, 4, 3, 2, 4, 4, 4, 4, 2, 1, 3, 2, 1, 1, 1, 1, 2, 1, 1, 2, 2, 2, 4, 4, 4, 5, 4, 3, 4, 4, 4, 2, 1, 1, 4, 3, 3, 1, 1, 1, 1, 1, 1, 4, 4, 4, 4, 4, 3, 3, 3, 3, 5, 4, 2, 4, 3, 3, 2, 1, 1, 2, 2, 1, 3, 3, 3, 5, 5, 5, 3, 2, 2, 3, 3, 2, 2, 1, 1, 2, 1, 1, 1, 1, 1, 3, 3, 2, 2, 1, 1, 3, 2, 1, 3, 3, 2, 4, 3, 3, 4, 4, 4, 4, 4, 4, 4, 3, 2, 4, 4, 3, 4, 2, 1, 5, 3, 2, 4, 4, 4, 5, 4, 3, 2, 2, 1, 4, 2, 2, 1, 1, 1, 3, 3, 3, 3, 3, 3, 4, 4, 4, 3, 2, 2
 |4, 4, 2, 5, 3, 3, 2, 2, 1, 2, 1, 1, 4, 4, 4, 5, 5, 5, 3, 2, 2, 5, 4, 3, 1, 1, 1, 4, 4, 3, 5, 5, 5, 3, 3, 3, 3, 3, 2, 4, 3, 3, 3, 3, 3, 3, 1, 1, 4, 3, 3, 2, 1, 1, 3, 3, 3, 5, 5, 5, 3, 3, 3, 5, 5, 5, 4, 3, 3, 1, 1, 1, 4, 3, 2, 2, 1, 1, 5, 3, 3, 4, 2, 1, 2, 2, 2, 2, 1, 1, 4, 3, 2, 5, 4, 4, 3, 3, 2, 3, 3, 3, 5, 4, 3, 5, 5, 5, 1, 1, 1, 1, 1, 1, 3, 2, 1, 5, 5, 5, 4, 4, 2, 5, 3, 2, 3, 3, 3, 4, 3, 3, 2, 2, 2, 4, 3, 2, 4, 4, 4, 2, 1, 1, 4, 4, 3, 3, 1, 1, 3, 3, 2, 3, 3, 3, 4, 4, 4, 3, 3, 2, 4, 3, 2, 4, 4, 4, 5, 4, 3, 4, 4, 4, 4, 2, 2, 4, 4, 4, 3, 3, 2, 3, 2, 1, 2, 2, 2, 1, 1, 1, 2, 2, 2, 5, 3, 3, 5, 4, 4, 4, 4, 3, 5, 3, 2, 2, 2, 2, 4, 4, 4, 5, 5, 5, 4, 3, 3, 2, 1, 1, 3, 2, 2, 2, 2, 1, 2, 2, 1, 2, 2, 2, 1, 1, 1, 1, 1, 1, 4, 4, 4, 5, 3, 2, 3, 3, 3, 2, 2, 2, 3, 2, 2, 3, 3, 2, 4, 2, 2, 4, 4, 3, 3, 2, 2, 1, 1, 1, 4, 2, 1, 1, 1, 1, 3, 3, 1, 5, 4, 3, 4, 3, 2, 4, 4, 3, 1, 1, 1, 5, 5, 5, 5, 5, 5, 4, 4, 3
 |21, 19, 11, 28, 21, 16, 22, 14, 7, 8, 6, 6, 20, 13, 3, 11, 10, 3, 18, 16, 2, 20, 15, 14, 16, 14, 6, 29, 28, 28, 13, 11, 11, 19, 14, 12, 25, 24, 22, 20, 17, 11, 15, 10, 2, 24, 23, 19, 18, 16, 14, 23, 22, 15, 27, 19, 4, 25, 24, 22, 3, 2, 1, 15, 13, 12, 7, 3, 3, 26, 21, 19, 14, 12, 4, 27, 26, 23, 13, 9, 6, 14, 7, 6, 27, 25, 23, 16, 15, 14, 29, 28, 28, 30, 26, 21, 13, 12, 7, 21, 12, 5, 7, 4, 2, 11, 10, 2, 24, 23, 20, 15, 8, 7, 20, 12, 4, 18, 11, 5, 18, 13, 12, 29, 14, 10, 23, 22, 19, 23, 13, 12, 21, 13, 3, 16, 13, 10, 23, 18, 10, 21, 16, 15, 28, 27, 26, 22, 16, 5, 25, 22, 13, 23, 19, 13, 21, 17, 14, 21, 16, 14, 5, 2, 1, 21, 17, 12, 15, 12, 10, 19, 15, 13, 25, 19, 16, 21, 16, 15, 22, 19, 14, 20, 19, 17, 25, 25, 24, 16, 14, 11, 24, 22, 21, 8, 8, 8, 22, 20, 11, 11, 8, 8, 23, 18, 14, 19, 15, 10, 23, 15, 11, 21, 12, 10, 25, 25, 19, 15, 15, 14, 25, 18, 15, 24, 24, 23, 19, 15, 15, 24, 12, 5, 26, 20, 17, 9, 9, 9, 17, 11, 9, 17, 16, 8, 9, 8, 8, 18, 16, 15, 9, 6, 1, 25, 21, 18, 10, 10, 10, 29, 28, 27, 22, 21, 20, 25, 25, 19, 20, 20, 20, 22, 18, 8, 25, 24, 24, 13, 11, 9, 9, 8, 7, 7, 6, 4, 22, 14, 4, 23, 20, 18, 15, 10, 8, 6, 5, 5
 |25, 16, 7, 23, 17, 13, 21, 14, 7, 15, 12, 5, 4, 3, 3, 29, 29, 29, 20, 7, 1, 15, 8, 3, 26, 20, 12, 26, 22, 22, 20, 19, 18, 27, 27, 27, 12, 8, 6, 12, 8, 6, 6, 4, 4, 24, 17, 14, 12, 9, 5, 24, 20, 18, 22, 16, 9, 23, 11, 3, 5, 3, 3, 18, 14, 10, 26, 22, 19, 18, 17, 13, 19, 13, 10, 11, 9, 8, 28, 24, 23, 13, 8, 5, 21, 15, 7, 7, 6, 5, 24, 15, 9, 9, 5, 4, 22, 20, 6, 29, 28, 27, 18, 15, 8, 16, 12, 12, 21, 20, 20, 6, 5, 1, 30, 29, 28, 15, 15, 15, 22, 17, 5, 10, 10, 6, 4, 2, 1, 27, 16, 8, 25, 12, 5, 28, 27, 25, 14, 10, 8, 24, 23, 13, 14, 14, 9, 9, 8, 7, 9, 6, 5, 11, 10, 6, 19, 11, 7, 14, 13, 13, 11, 11, 10, 13, 12, 8, 14, 14, 13, 22, 19, 14, 25, 24, 24, 27, 19, 16, 21, 20, 17, 18, 14, 10, 23, 22, 20, 15, 13, 11, 17, 16, 3, 21, 15, 12, 27, 21, 20, 24, 19, 9, 13, 8, 7, 25, 24, 22, 26, 23, 23, 17, 15, 13, 11, 8, 1, 23, 22, 22, 27, 15, 13, 22, 21, 20, 21, 18, 6, 25, 25, 25, 11, 9, 5, 10, 6, 3, 26, 26, 26, 18, 18, 17, 20, 14, 7, 12, 7, 5, 20, 16, 11, 8, 7, 6, 28, 21, 14, 13, 13, 12, 27, 17, 5, 15, 15, 15, 19, 12, 3, 11, 6, 6, 7, 5, 1, 9, 6, 1, 16, 7, 5, 18, 14, 12, 23, 23, 23, 22, 22, 22, 17, 10, 6, 23, 22, 22|];